Version identifier: 20.1.0.0 | 2020-11-10 | 9bedb6d68
CPXPARAM_Threads                                 1
CPXPARAM_TimeLimit                               7200
CPXPARAM_MIP_Tolerances_MIPGap                   0
Generic callback                                 0x60
1 of 1 MIP starts provided solutions.
MIP start 'm1' defined initial solution with objective 1340.1005.
Tried aggregator 1 time.
Reduced MIP has 1 rows, 1001 columns, and 1000 nonzeros.
Reduced MIP has 1000 binaries, 0 generals, 0 SOSs, and 0 indicators.
Presolve time = 0.00 sec. (0.30 ticks)
Probing time = 0.00 sec. (0.11 ticks)
Tried aggregator 1 time.
Reduced MIP has 1 rows, 1001 columns, and 1000 nonzeros.
Reduced MIP has 1000 binaries, 0 generals, 0 SOSs, and 0 indicators.
Presolve time = 0.00 sec. (0.31 ticks)
Probing time = 0.00 sec. (0.11 ticks)
MIP emphasis: balance optimality and feasibility.
MIP search method: dynamic search.
Parallel mode: none, using 1 thread.
Root relaxation solution time = 0.00 sec. (0.21 ticks)

        Nodes                                         Cuts/
   Node  Left     Objective  IInf  Best Integer    Best Bound    ItCnt     Gap

*     0+    0                         1340.1005     2716.0000           102.67%
      0     0     1657.0135     2     1340.1005     2716.0000        0  102.67%
      0     0     1624.8395     4     1340.1005 UserPurge2: 1        4   21.25%
      0     0     1508.0636     5     1340.1005 UserPurge2: 1       16   12.53%
      0     0     1482.3940     6     1340.1005 UserPurge2: 1       38   10.62%
      0     0     1472.0948     8     1340.1005 UserPurge2: 1       46    9.85%
      0     0     1457.5073     8     1340.1005 UserPurge2: 1       69    8.76%
      0     0     1450.4414    10     1340.1005 UserPurge2: 1       81    8.23%
      0     0     1428.6606     7     1340.1005 UserPurge2: 1      115    6.61%
      0     0     1421.3607     7     1340.1005 UserPurge2: 1      130    6.06%
      0     0     1413.9396     6     1340.1005 UserPurge2: 1      140    5.51%
      0     0     1404.7720     5     1340.1005 UserPurge2: 1      150    4.83%
      0     0     1401.9009     7     1340.1005 UserPurge1: 3      153    4.61%
      0     0     1399.0430     6     1340.1005 UserPurge2: 1      167    4.40%
      0     0     1397.0081     8     1340.1005 UserPurge2: 1      179    4.25%
      0     0     1396.3230     8     1340.1005 UserPurge2: 1      185    4.20%
*     0+    0                         1346.0588     1396.3230             3.73%
      0     0     1393.2410     7     1346.0588 UserPurge2: 1      200    3.51%
      0     0     1391.8679     8     1346.0588 UserPurge2: 1      205    3.40%
      0     0     1390.3501     9     1346.0588 UserPurge2: 1      217    3.29%
      0     0     1390.1180    10     1346.0588 UserPurge2: 1      226    3.27%
      0     0     1389.4753    10     1346.0588 UserPurge2: 1      240    3.23%
      0     0     1388.7032    10     1346.0588 UserPurge2: 1      250    3.17%
      0     0     1387.6708    10     1346.0588 UserPurge2: 1      259    3.09%
      0     0     1384.3790     8     1346.0588 UserPurge2: 1      291    2.85%
      0     0     1383.5547     8     1346.0588 UserPurge2: 1      302    2.79%
      0     0     1381.9548     9     1346.0588 UserPurge2: 1      310    2.67%
      0     0     1381.6227     9     1346.0588 UserPurge2: 1      324    2.64%
      0     0     1380.7947    10     1346.0588 UserPurge2: 1      333    2.58%
      0     0     1380.2332    11     1346.0588 UserPurge2: 1      341    2.54%
      0     0     1379.5862    12     1346.0588 UserPurge2: 1      360    2.49%
      0     0     1378.6389    12     1346.0588 UserPurge2: 1      373    2.42%
      0     0     1378.1416    12     1346.0588 UserPurge2: 1      384    2.38%
      0     0     1377.6344    13     1346.0588 UserPurge2: 1      396    2.35%
      0     0     1377.5289    14     1346.0588 UserPurge2: 1      400    2.34%
      0     0     1376.4406    14     1346.0588 UserPurge2: 1      423    2.26%
      0     0     1375.9897    13     1346.0588 UserPurge2: 1      439    2.22%
      0     0     1375.5823    14     1346.0588 UserPurge2: 1      450    2.19%
      0     0     1375.3326    14     1346.0588 UserPurge2: 1      462    2.17%
*     0+    0                         1351.6893     1375.3326             1.75%
      0     0     1374.9852    15     1351.6893 UserPurge2: 1      479    1.72%
      0     0     1374.8660    16     1351.6893 UserPurge2: 1      493    1.71%
      0     0     1374.4375    17     1351.6893 UserPurge2: 1      517    1.68%
      0     0     1374.1730    16     1351.6893 UserPurge2: 1      529    1.66%
      0     0     1373.4372    16     1351.6893 UserPurge2: 1      546    1.61%
      0     0     1372.4400    14     1351.6893 UserPurge2: 1      577    1.54%
      0     0     1371.3159    14     1351.6893 UserPurge2: 1      594    1.45%
      0     0     1370.9265    14     1351.6893 UserPurge2: 1      614    1.42%
      0     0     1370.4908    14     1351.6893 UserPurge2: 1      630    1.39%
      0     0     1370.3847    15     1351.6893 UserPurge2: 1      636    1.38%
      0     0     1369.7548    14     1351.6893 UserPurge2: 1      658    1.34%
      0     0     1369.3167    15     1351.6893 UserPurge2: 1      676    1.30%
      0     0     1369.0136    15     1351.6893 UserPurge2: 1      690    1.28%
      0     0     1368.7065    16     1351.6893 UserPurge2: 1      699    1.26%
      0     0     1368.4708    17     1351.6893 UserPurge2: 1      705    1.24%
      0     0     1368.2506    17     1351.6893 UserPurge2: 1      716    1.23%
      0     0     1368.1261    18     1351.6893 UserPurge2: 1      728    1.22%
      0     0     1367.8677    18     1351.6893 UserPurge2: 1      741    1.20%
      0     0     1367.6674    18     1351.6893 UserPurge2: 1      765    1.18%

Repeating presolve.
Tried aggregator 1 time.
MIP Presolve eliminated 0 rows and 251 columns.
Reduced MIP has 1 rows, 750 columns, and 749 nonzeros.
Reduced MIP has 749 binaries, 0 generals, 0 SOSs, and 0 indicators.
Presolve time = 0.00 sec. (0.28 ticks)
Probing time = 0.00 sec. (0.08 ticks)
Tried aggregator 1 time.
Reduced MIP has 1 rows, 750 columns, and 749 nonzeros.
Reduced MIP has 749 binaries, 0 generals, 0 SOSs, and 0 indicators.
Presolve time = 0.00 sec. (0.23 ticks)
Represolve time = 0.02 sec. (7.55 ticks)
Probing time = 0.00 sec. (0.08 ticks)
MIP emphasis: balance optimality and feasibility.
MIP search method: dynamic search.
Parallel mode: none, using 1 thread.
Root relaxation solution time = 0.00 sec. (6.53 ticks)

        Nodes                                         Cuts/
   Node  Left     Objective  IInf  Best Integer    Best Bound    ItCnt     Gap

*     0+    0                         1351.6893     1367.6674             1.18%
      0     0     1367.6674    18     1351.6893     1367.6674      836    1.18%
      0     0     1367.5757    18     1351.6893 UserPurge2: 1      854    1.18%
      0     0     1367.4922    18     1351.6893 UserPurge2: 1      870    1.17%
      0     0     1367.4644    19     1351.6893 UserPurge2: 1      880    1.17%
      0     0     1367.3283    19     1351.6893 UserPurge2: 1      891    1.16%
      0     0     1367.2011    19     1351.6893 UserPurge2: 1      905    1.15%
      0     0     1367.1199    19     1351.6893 UserPurge2: 1      918    1.14%
      0     0     1366.9727    19     1351.6893 UserPurge2: 1      935    1.13%
*     0+    0                         1355.2646     1366.9727             0.86%
      0     2     1366.9727    19     1355.2646     1366.9726      935    0.86%
Elapsed time = 14.18 sec. (287.90 ticks, tree = 0.01 MB, solutions = 4)
      1     3     1358.0815    11     1355.2646     1366.9726     6136    0.86%
*     2     2      integral     0     1356.8437     1366.9726     6584    0.75%
*     3     1      integral     0     1358.0000     1358.0811     6649    0.01%

User cuts applied:  357

Root node processing (before b&c):
  Real time             =   14.18 sec. (288.67 ticks)
Sequential b&c:
  Real time             =   36.98 sec. (1585.39 ticks)
                          ------------
Total (root+branch&cut) =   51.16 sec. (1874.06 ticks)
@Parameters: 
is_S_cut                                true
is_add_all_yinF                         true
is_start_value                          true
is_usercut                              true
is_visualization                        false
uc_only_rootnode                        false

data                                    Qi
fn                                      data/Qi/instance_500_1000.csv
mode                                    NewSubmodular
solver                                  cplex

p                                       5
r                                       5

EPS                                     1.0e-06
EPS_vio                                 1.0e-04
beta                                    0.10
gap                                     0.00
nodelimit                               Inf
timelimit                               7200.00


@PrintInfos
ItCnt: 6793
Current gap: 0.00 %
Termination Status: OPTIMAL
Primal Status: FEASIBLE_POINT
Solve Time: 51.16 sec
Objective Value: 1358.000000
Number of Nodes:      5

CutInfo: [phase] num / time (sec) 
ZLP             [phase1]     0 / 0.00 [rLC]     0 / 0.00 [rUC]     0 / 0.00 [sLC]     0 / 0.00 [sUC]     0 / 0.00 
OldSubmodular   [phase1]     0 / 0.00 [rLC]     0 / 0.00 [rUC]     0 / 0.00 [sLC]     0 / 0.00 [sUC]     0 / 0.00 
NewSubmodular   [phase1]     0 / 0.00 [rLC]    34 / 9.23 [rUC]    64 / 2.66 [sLC]     0 / 3.10 [sUC]   334 / 32.63 
PMP             [phase1]     0 / 0.00 [rLC]     5 / 6.89 [rUC]     0 / 0.00 [sLC]     2 / 3.08 [sUC]     3 / 4.21 
Separation Round: [phase1] 0  [rLC] 38  [rUC] 64  [sLC] 2  [sUC] 279
Root Best Bound 1358.081543
Root Best Integer: 1356.843731
Best Bound: 1358.000000
Best Integer: 1358.000000

